50 9984 68946
1 5094 485 1
2 4506 6326 0
3 4416 9248 0
4 992 5421 0
5 6649 322 1
6 9237 5795 0
7 6457 8043 0
8 7815 2845 0
9 9446 4955 0
10 3422 9252 0
11 8791 1009 1
12 9359 5901 0
13 5667 1122 1
14 1598 1094 0
15 2007 8738 0
16 544 8574 0
17 5334 5715 0
18 2766 8882 0
19 3994 1367 1
20 9893 9984 0
21 2633 3299 0
22 7131 9433 0
23 5428 5682 0
24 6700 72 1
25 617 7874 0
26 5874 138 1
27 7720 3856 0
28 4419 7145 0
29 9794 7995 0
30 8196 1529 1
31 5997 6199 0
32 3116 3277 0
33 5908 97 1
34 5539 9719 0
35 5707 5242 0
36 8569 6107 0
37 5537 1122 1
38 931 1070 0
39 5726 6098 0
40 5487 3600 0
41 9772 6645 0
42 7513 7267 0
43 2081 1972 0
44 9943 9895 0
45 8058 3213 0
46 4303 9748 0
47 3764 9487 0
48 6536 1923 1
49 724 7029 0
50 3789 5674 0